Route #1: 57 103 34 10 102 5 25 104 26 70
Route #2: 41 48 49 83 108 58 14 24
Route #3: 7 78 12 86 52 90 47 6
Route #4: 53 51 40 29 32 18 96 60 28
Route #5: 81 94 105 61 62 23 84 77 56 31
Route #6: 106 21 93 98 43 107 35 46 68
Route #7: 69 55 97 89 76 22 42 13 59
Route #8: 20 64 73 11 87 101 63 9 50
Route #9: 100 66 37 65 44 3 72
Route #10: 110 19 85 88 27 54 16 67 99
Route #11: 74 36 8 38 95 82 45 71
Route #12: 80 33 75 79 30 17 91 2
Route #13: 15 4 109 39 92
Cost 27971
